param n = 16;
param m = 4;

param f :=
1	165428
2	131230
3	140000
4	145000
;





param h :=
1	40
2	35
3	100
4	25
5	40
6	25
7	50
8	30
9	50
10	65
11	40
12	30
13	20
14	30
15	40
16	55
;



param c:	1	2	3	4 :=
 1  	 150 	 250 	 200 	 25 
 2 	     150 	 250 	 200 	 75 
 3  	 75 	 200 	 150 	 125 
 4  	 150 	 200 	 125 	 125 
 5  	 100 	 200 	 125 	 150 
 6  	 175 	 175 	 125 	 125 
 7  	 150 	 175 	 100 	 150 
 8  	 150 	 150 	 100 	 200 
 9  	 75 	 200 	 100 	 250 
 10 	 150 	 125 	 25 	 250 
 11 	 125 	 125 	 75 	 300 
 12 	 300 	 200 	 150 	 200 
 13 	 300 	 175 	 125 	 200 
 14 	 250 	 100 	 125 	 250 
 15 	 250 	 75 	 75 	 300 
 16 	 250 	 25 	 125 	 300 


;


